(set-info :smt-lib-version 2.7)
(set-logic ALL)
(set-info :source |
Generated on: 2026-06-22
Generator: pog2smtlib-2.7 github.com/CLEARSY/pog2smtlib-2.7 (-l HO_ALL -rpX)
Application: Discharging a proof obligation generated by aTelierB from an anonymized B machine
Target solver: CVC5
Time limit: 1200.0
|)
(set-info :license "www.gnu.org/licenses/gpl-3.0.en.html")
(set-info :category "industrial")
(set-info :status unknown)

(define-sort |Z| () Int)
(declare-sort P 1)
(define-sort |POW Z| () (P |Z|))
(declare-fun |set.in Z| (|Z| |POW Z|) Bool)
(declare-const s83 |POW Z|)
(declare-const s25 |POW Z|)
(declare-const s22 |Z|)
(declare-const s21 |POW Z|)
(declare-const s23 |POW Z|)
(declare-fun |set.subseteq Z| (|POW Z| |POW Z|) Bool)
(assert (!
    (forall ((s |POW Z|) (t |POW Z|))
      (=
        (|set.subseteq Z| s t)
        (forall ((e |Z|)) (=> (|set.in Z| e s) (|set.in Z| e t)))
      )
    )
    :named |ax.set.subseteq Z|))
(define-sort |? Z| () (-> |Z| Bool))
(declare-const |set.intent Z| (-> |? Z| |POW Z|))
(assert (!
  (forall ((p |? Z|))
    (forall ((x |Z|))
      (= (|set.in Z| x (|set.intent Z| p))
         (@ p x))))
  :named |ax:set.in.intent Z|))
(assert (!
  (forall ((s |POW Z|) (t |POW Z|))
    (=
      (= s t)
      (forall ((e |Z|)) (= (|set.in Z| e s) (|set.in Z| e t)))))
  :named |ax.set.eq Z|))
(declare-const INTEGER |POW Z|)
(assert (!
  (forall ((e |Z|)) (|set.in Z| e INTEGER))
  :named |ax.set.in.INTEGER|))
(assert (!
  (= s25 (|set.intent Z| (lambda ((_c0 |Z|)) (and
  (|set.in Z| _c0 s21)
  (>= _c0 s22)))))
  :named |Define:aprp:3|))
(assert (!
  (= s21 INTEGER)
  :named |Define:aprp:0|))
(assert (!
  (|set.in Z| s22 s21)
  :named |Define:aprp:1|))
(assert (!
  (= s23 (|set.intent Z| (lambda ((_c0 |Z|)) (and
  (|set.in Z| _c0 s21)
  (<= _c0 s22)))))
  :named |Define:aprp:2|))
(assert (!
  (not
    (|set.subseteq Z| s83 s25))
  :named |Goal|))
(check-sat)
(exit)
